results/x-long/X-n162-k11.vrp_seed-21.out
14153	1076
