results/x-long/X-n162-k11.vrp_seed-21.vrp.sol
Route #1: 136 91 81 158 120 5 16 32 57 131 151 146 39 137 108 74
Route #2: 111 154 140 31 100 106 88 96 129 95 114 62 67 20 79 52
Route #3: 121 85 160 153 110 128 124 134 148 109 2 82 159 147 135 141
Route #4: 54 76 41 61 46 69 65 70 113 63 104 83 98 47 25
Route #5: 15 10 105 139 126 138 133 107 122 84 143 144 119 29 72
Route #6: 8 42 51 12 64 18 19 3 33 75 44 7 34 22 78
Route #7: 156 115 103 118 30 40 157 112 87 4 101 132 93 125 92 155
Route #8: 161 77 97 117 27 9 21 60 55 1 14 89 149 17 127
Route #9: 59 50 45 150 90 86 53 80
Route #10: 28 26 48 11 38 73 49 6 37 71 13 24 23 152
Route #11: 145 68 58 130 99 35 36 94 66 56 123 43 142 102 116
Cost 14153.000000